eval/18-encs/equiv_enc_140.smt2
; PUSH cw_4 PUSH cw_2 DUP2 SHA3 SLOAD SWAP1 => PUSH cw_2 PUSH cw_4 SHA3 SLOAD PUSH cw_4
(set-option :produce-proofs true)
; 
(set-info :status unknown)
(declare-fun storage_t ((_ BitVec 256) (_ BitVec 256) (_ BitVec 256) (_ BitVec 256) Int (_ BitVec 256)) (_ BitVec 256))
(declare-fun w_2 () (_ BitVec 256))
(declare-fun w_4 () (_ BitVec 256))
(declare-fun storage_s ((_ BitVec 256) (_ BitVec 256) (_ BitVec 256) (_ BitVec 256) Int (_ BitVec 256)) (_ BitVec 256))
(declare-fun exc_halt_t (Int) Bool)
(declare-fun exc_halt_s (Int) Bool)
(declare-fun sc_t (Int) (_ BitVec 6))
(declare-fun stack_t ((_ BitVec 256) (_ BitVec 256) (_ BitVec 256) (_ BitVec 256) Int (_ BitVec 6)) (_ BitVec 256))
(declare-fun stack_s ((_ BitVec 256) (_ BitVec 256) (_ BitVec 256) (_ BitVec 256) Int (_ BitVec 6)) (_ BitVec 256))
(declare-fun sc_s (Int) (_ BitVec 6))
(declare-fun used_gas_t ((_ BitVec 256) (_ BitVec 256) (_ BitVec 256) (_ BitVec 256) Int) Int)
(declare-fun used_gas_s ((_ BitVec 256) (_ BitVec 256) (_ BitVec 256) (_ BitVec 256) Int) Int)
(declare-fun f_SHA3 ((_ BitVec 256) (_ BitVec 256) (_ BitVec 256) (_ BitVec 256) (_ BitVec 256) (_ BitVec 256)) (_ BitVec 256))
(assert
 (exists ((x_SLOAD_0 (_ BitVec 256)) (x_SHA3_0 (_ BitVec 256)) )(let (($x5670 (forall ((w (_ BitVec 256)) )(let ((?x6549 (storage_t x_SLOAD_0 w_4 w_2 x_SHA3_0 5 w)))
 (let ((?x5004 (storage_s x_SLOAD_0 w_4 w_2 x_SHA3_0 6 w)))
 (= ?x5004 ?x6549))))
 ))
 (let (($x886 (exc_halt_t 5)))
 (let (($x772 (exc_halt_s 6)))
 (let (($x889 (= $x772 $x886)))
 (let (($x5125 (forall ((n (_ BitVec 6)) )(let ((?x919 (sc_t 5)))
 (let (($x9004 (bvsle ?x919 n)))
 (let ((?x285 (stack_t x_SLOAD_0 w_4 w_2 x_SHA3_0 5 n)))
 (let ((?x6323 (stack_s x_SLOAD_0 w_4 w_2 x_SHA3_0 6 n)))
 (let (($x4954 (= ?x6323 ?x285)))
 (or $x4954 $x9004)))))))
 ))
 (let ((?x919 (sc_t 5)))
 (let ((?x926 (sc_s 6)))
 (let (($x929 (= ?x926 ?x919)))
 (let ((?x6236 (used_gas_t x_SLOAD_0 w_4 w_2 x_SHA3_0 0)))
 (let ((?x5317 (used_gas_s x_SLOAD_0 w_4 w_2 x_SHA3_0 0)))
 (let (($x5107 (= ?x5317 ?x6236)))
 (let (($x2620 (forall ((w (_ BitVec 256)) )(let ((?x10132 (storage_t x_SLOAD_0 w_4 w_2 x_SHA3_0 0 w)))
 (let ((?x208 (storage_s x_SLOAD_0 w_4 w_2 x_SHA3_0 0 w)))
 (= ?x208 ?x10132))))
 ))
 (let (($x56 (exc_halt_t 0)))
 (let (($x57 (exc_halt_s 0)))
 (let (($x58 (= $x57 $x56)))
 (let (($x10050 (forall ((n (_ BitVec 6)) )(let ((?x10563 (stack_t x_SLOAD_0 w_4 w_2 x_SHA3_0 0 n)))
 (let ((?x9355 (stack_s x_SLOAD_0 w_4 w_2 x_SHA3_0 0 n)))
 (let (($x4826 (= ?x9355 ?x10563)))
 (let ((?x63 (sc_t 0)))
 (let (($x4379 (bvsle ?x63 n)))
 (or $x4379 $x4826)))))))
 ))
 (let ((?x63 (sc_t 0)))
 (let ((?x72 (sc_s 0)))
 (let (($x73 (= ?x72 ?x63)))
 (let (($x3723 (exc_halt_t 4)))
 (let (($x1150 (or $x3723 (not (= ((_ extract 6 6) (bvadd (_ bv1 7) (concat (_ bv0 1) (sc_t 4)))) (_ bv0 1))))))
 (let (($x8835 (= $x886 $x1150)))
 (let (($x4873 (forall ((w (_ BitVec 256)) )(let ((?x5058 (storage_t x_SLOAD_0 w_4 w_2 x_SHA3_0 4 w)))
 (let ((?x6549 (storage_t x_SLOAD_0 w_4 w_2 x_SHA3_0 5 w)))
 (= ?x6549 ?x5058))))
 ))
 (let (($x8154 (forall ((n (_ BitVec 6)) )(let ((?x7998 (stack_t x_SLOAD_0 w_4 w_2 x_SHA3_0 4 n)))
 (let ((?x285 (stack_t x_SLOAD_0 w_4 w_2 x_SHA3_0 5 n)))
 (let ((?x3757 (sc_t 4)))
 (let (($x7992 (bvsle ?x3757 n)))
 (or $x7992 (= ?x285 ?x7998)))))))
 ))
 (let (($x6725 (= ?x919 (bvadd (_ bv1 6) (sc_t 4)))))
 (let (($x10163 (= (used_gas_t x_SLOAD_0 w_4 w_2 x_SHA3_0 5) (+ 3 (used_gas_t x_SLOAD_0 w_4 w_2 x_SHA3_0 4)))))
 (let (($x9766 (= $x3723 (or (exc_halt_t 3) (not (bvsle (_ bv0 6) (bvadd (_ bv63 6) (sc_t 3))))))))
 (let (($x10165 (forall ((w (_ BitVec 256)) )(let ((?x5214 (storage_t x_SLOAD_0 w_4 w_2 x_SHA3_0 3 w)))
 (let ((?x5058 (storage_t x_SLOAD_0 w_4 w_2 x_SHA3_0 4 w)))
 (= ?x5058 ?x5214))))
 ))
 (let (($x7526 (forall ((n (_ BitVec 6)) )(let ((?x9353 (stack_t x_SLOAD_0 w_4 w_2 x_SHA3_0 3 n)))
 (let ((?x7998 (stack_t x_SLOAD_0 w_4 w_2 x_SHA3_0 4 n)))
 (let ((?x2012 (sc_t 3)))
 (let ((?x5914 (bvadd (_ bv63 6) ?x2012)))
 (let (($x7534 (bvsle ?x5914 n)))
 (or $x7534 (= ?x7998 ?x9353))))))))
 ))
 (let ((?x2012 (sc_t 3)))
 (let ((?x3757 (sc_t 4)))
 (let (($x6874 (= ?x3757 ?x2012)))
 (let ((?x10507 (used_gas_t x_SLOAD_0 w_4 w_2 x_SHA3_0 4)))
 (let ((?x5914 (bvadd (_ bv63 6) ?x2012)))
 (let ((?x5529 (stack_t x_SLOAD_0 w_4 w_2 x_SHA3_0 3 ?x5914)))
 (let (($x3835 (= (stack_t x_SLOAD_0 w_4 w_2 x_SHA3_0 4 (bvadd (_ bv63 6) ?x3757)) (storage_t x_SLOAD_0 w_4 w_2 x_SHA3_0 3 ?x5529))))
 (let (($x10336 (exc_halt_t 3)))
 (let (($x7269 (= $x10336 (or (exc_halt_t 2) (not (bvsle (_ bv0 6) (bvadd (_ bv62 6) (sc_t 2))))))))
 (let (($x2983 (forall ((w (_ BitVec 256)) )(let ((?x1198 (storage_t x_SLOAD_0 w_4 w_2 x_SHA3_0 2 w)))
 (let ((?x5214 (storage_t x_SLOAD_0 w_4 w_2 x_SHA3_0 3 w)))
 (= ?x5214 ?x1198))))
 ))
 (let (($x561 (forall ((n (_ BitVec 6)) )(let ((?x4056 (sc_t 2)))
 (let ((?x4116 (bvadd (_ bv62 6) ?x4056)))
 (let (($x9513 (bvsle ?x4116 n)))
 (let ((?x5112 (stack_t x_SLOAD_0 w_4 w_2 x_SHA3_0 2 n)))
 (let ((?x9353 (stack_t x_SLOAD_0 w_4 w_2 x_SHA3_0 3 n)))
 (or (= ?x9353 ?x5112) $x9513)))))))
 ))
 (let ((?x4714 (used_gas_t x_SLOAD_0 w_4 w_2 x_SHA3_0 3)))
 (let ((?x10318 (f_SHA3 x_SLOAD_0 w_4 w_2 x_SHA3_0 (stack_t x_SLOAD_0 w_4 w_2 x_SHA3_0 2 (bvadd (_ bv63 6) (sc_t 2))) (stack_t x_SLOAD_0 w_4 w_2 x_SHA3_0 2 (bvadd (_ bv62 6) (sc_t 2))))))
 (let (($x5522 (not (= ((_ extract 6 6) (bvadd (_ bv1 7) (concat (_ bv0 1) (sc_t 1)))) (_ bv0 1)))))
 (let (($x1920 (exc_halt_t 1)))
 (let (($x903 (exc_halt_t 2)))
 (let (($x1427 (= $x903 (or $x1920 $x5522))))
 (let (($x3795 (forall ((w (_ BitVec 256)) )(let ((?x2434 (storage_t x_SLOAD_0 w_4 w_2 x_SHA3_0 1 w)))
 (let ((?x1198 (storage_t x_SLOAD_0 w_4 w_2 x_SHA3_0 2 w)))
 (= ?x1198 ?x2434))))
 ))
 (let (($x2639 (forall ((n (_ BitVec 6)) )(let ((?x5095 (stack_t x_SLOAD_0 w_4 w_2 x_SHA3_0 1 n)))
 (let ((?x5112 (stack_t x_SLOAD_0 w_4 w_2 x_SHA3_0 2 n)))
 (let ((?x4023 (sc_t 1)))
 (let (($x2031 (bvsle ?x4023 n)))
 (or $x2031 (= ?x5112 ?x5095)))))))
 ))
 (let ((?x4056 (sc_t 2)))
 (let (($x5543 (= ?x4056 (bvadd (_ bv1 6) (sc_t 1)))))
 (let ((?x188 (used_gas_t x_SLOAD_0 w_4 w_2 x_SHA3_0 2)))
 (let (($x4795 (= $x1920 (or $x56 (not (= ((_ extract 6 6) (bvadd (_ bv1 7) (concat (_ bv0 1) ?x63))) (_ bv0 1)))))))
 (let (($x10409 (forall ((w (_ BitVec 256)) )(let ((?x10132 (storage_t x_SLOAD_0 w_4 w_2 x_SHA3_0 0 w)))
 (let ((?x2434 (storage_t x_SLOAD_0 w_4 w_2 x_SHA3_0 1 w)))
 (= ?x2434 ?x10132))))
 ))
 (let (($x10490 (forall ((n (_ BitVec 6)) )(let ((?x10563 (stack_t x_SLOAD_0 w_4 w_2 x_SHA3_0 0 n)))
 (let ((?x5095 (stack_t x_SLOAD_0 w_4 w_2 x_SHA3_0 1 n)))
 (let ((?x63 (sc_t 0)))
 (let (($x4379 (bvsle ?x63 n)))
 (or $x4379 (= ?x5095 ?x10563)))))))
 ))
 (let ((?x4023 (sc_t 1)))
 (let (($x223 (= ?x4023 (bvadd (_ bv1 6) ?x63))))
 (let (($x10361 (= $x772 (or (exc_halt_s 5) (not (bvsle (_ bv0 6) (bvadd (_ bv62 6) (sc_s 5))))))))
 (let (($x619 (forall ((w (_ BitVec 256)) )(let ((?x10094 (storage_s x_SLOAD_0 w_4 w_2 x_SHA3_0 5 w)))
 (let ((?x5004 (storage_s x_SLOAD_0 w_4 w_2 x_SHA3_0 6 w)))
 (= ?x5004 ?x10094))))
 ))
 (let (($x274 (forall ((n (_ BitVec 6)) )(let ((?x5136 (stack_s x_SLOAD_0 w_4 w_2 x_SHA3_0 5 n)))
 (let ((?x6323 (stack_s x_SLOAD_0 w_4 w_2 x_SHA3_0 6 n)))
 (let ((?x805 (sc_s 5)))
 (let ((?x9590 (bvadd (_ bv62 6) ?x805)))
 (let (($x4062 (bvsle ?x9590 n)))
 (or $x4062 (= ?x6323 ?x5136))))))))
 ))
 (let ((?x805 (sc_s 5)))
 (let (($x5117 (= ?x926 ?x805)))
 (let (($x244 (= (used_gas_s x_SLOAD_0 w_4 w_2 x_SHA3_0 6) (+ 3 (used_gas_s x_SLOAD_0 w_4 w_2 x_SHA3_0 5)))))
 (let ((?x8276 (bvadd (_ bv63 6) ?x805)))
 (let ((?x871 (stack_s x_SLOAD_0 w_4 w_2 x_SHA3_0 5 ?x8276)))
 (let (($x10365 (= (stack_s x_SLOAD_0 w_4 w_2 x_SHA3_0 6 (bvadd (_ bv63 6) ?x926)) (stack_s x_SLOAD_0 w_4 w_2 x_SHA3_0 5 (bvadd (_ bv62 6) ?x805)))))
 (let (($x3979 (exc_halt_s 5)))
 (let (($x4293 (= $x3979 (or (exc_halt_s 4) (not (bvsle (_ bv0 6) (bvadd (_ bv63 6) (sc_s 4))))))))
 (let (($x4879 (forall ((w (_ BitVec 256)) )(let ((?x10035 (storage_s x_SLOAD_0 w_4 w_2 x_SHA3_0 4 w)))
 (let ((?x10094 (storage_s x_SLOAD_0 w_4 w_2 x_SHA3_0 5 w)))
 (= ?x10094 ?x10035))))
 ))
 (let (($x1574 (forall ((n (_ BitVec 6)) )(let ((?x4305 (sc_s 4)))
 (let ((?x1909 (bvadd (_ bv63 6) ?x4305)))
 (let (($x4357 (bvsle ?x1909 n)))
 (let ((?x513 (stack_s x_SLOAD_0 w_4 w_2 x_SHA3_0 4 n)))
 (let ((?x5136 (stack_s x_SLOAD_0 w_4 w_2 x_SHA3_0 5 n)))
 (or (= ?x5136 ?x513) $x4357)))))))
 ))
 (let ((?x4305 (sc_s 4)))
 (let (($x2270 (= ?x805 ?x4305)))
 (let ((?x503 (used_gas_s x_SLOAD_0 w_4 w_2 x_SHA3_0 5)))
 (let ((?x1909 (bvadd (_ bv63 6) ?x4305)))
 (let ((?x5123 (stack_s x_SLOAD_0 w_4 w_2 x_SHA3_0 4 ?x1909)))
 (let (($x64 (exc_halt_s 4)))
 (let (($x5849 (= $x64 (or (exc_halt_s 3) (not (bvsle (_ bv0 6) (bvadd (_ bv62 6) (sc_s 3))))))))
 (let (($x854 (forall ((w (_ BitVec 256)) )(let ((?x10216 (storage_s x_SLOAD_0 w_4 w_2 x_SHA3_0 3 w)))
 (let ((?x10035 (storage_s x_SLOAD_0 w_4 w_2 x_SHA3_0 4 w)))
 (= ?x10035 ?x10216))))
 ))
 (let (($x10571 (forall ((n (_ BitVec 6)) )(let ((?x275 (sc_s 3)))
 (let ((?x10534 (bvadd (_ bv62 6) ?x275)))
 (let (($x6997 (bvsle ?x10534 n)))
 (let ((?x470 (stack_s x_SLOAD_0 w_4 w_2 x_SHA3_0 3 n)))
 (let ((?x513 (stack_s x_SLOAD_0 w_4 w_2 x_SHA3_0 4 n)))
 (or (= ?x513 ?x470) $x6997)))))))
 ))
 (let ((?x275 (sc_s 3)))
 (let ((?x300 (bvadd (_ bv63 6) ?x275)))
 (let (($x4777 (= ?x4305 ?x300)))
 (let ((?x10225 (used_gas_s x_SLOAD_0 w_4 w_2 x_SHA3_0 4)))
 (let ((?x146 (stack_s x_SLOAD_0 w_4 w_2 x_SHA3_0 3 ?x300)))
 (let ((?x5520 (f_SHA3 x_SLOAD_0 w_4 w_2 x_SHA3_0 ?x146 (stack_s x_SLOAD_0 w_4 w_2 x_SHA3_0 3 (bvadd (_ bv62 6) ?x275)))))
 (let (($x8317 (not (bvsle (_ bv0 6) (bvadd (_ bv62 6) (sc_s 2))))))
 (let (($x1387 (not (= ((_ extract 6 6) (bvadd (_ bv1 7) (concat (_ bv0 1) (sc_s 2)))) (_ bv0 1)))))
 (let (($x247 (exc_halt_s 2)))
 (let (($x292 (exc_halt_s 3)))
 (let (($x8391 (= $x292 (or $x247 $x1387 $x8317))))
 (let (($x5127 (forall ((w (_ BitVec 256)) )(let ((?x6530 (storage_s x_SLOAD_0 w_4 w_2 x_SHA3_0 2 w)))
 (let ((?x10216 (storage_s x_SLOAD_0 w_4 w_2 x_SHA3_0 3 w)))
 (= ?x10216 ?x6530))))
 ))
 (let (($x5297 (forall ((n (_ BitVec 6)) )(let ((?x7035 (stack_s x_SLOAD_0 w_4 w_2 x_SHA3_0 2 n)))
 (let ((?x470 (stack_s x_SLOAD_0 w_4 w_2 x_SHA3_0 3 n)))
 (let ((?x218 (sc_s 2)))
 (let ((?x347 (bvadd (_ bv62 6) ?x218)))
 (let (($x3233 (bvsle ?x347 n)))
 (or $x3233 (= ?x470 ?x7035))))))))
 ))
 (let (($x2890 (= ?x275 (bvadd (_ bv1 6) (sc_s 2)))))
 (let ((?x10173 (used_gas_s x_SLOAD_0 w_4 w_2 x_SHA3_0 3)))
 (let (($x6098 (= (stack_s x_SLOAD_0 w_4 w_2 x_SHA3_0 3 (bvadd (_ bv63 6) (sc_s 2))) (stack_s x_SLOAD_0 w_4 w_2 x_SHA3_0 2 (bvadd (_ bv63 6) (sc_s 2))))))
 (let ((?x218 (sc_s 2)))
 (let ((?x347 (bvadd (_ bv62 6) ?x218)))
 (let ((?x5102 (stack_s x_SLOAD_0 w_4 w_2 x_SHA3_0 2 ?x347)))
 (let (($x1434 (not (= ((_ extract 6 6) (bvadd (_ bv1 7) (concat (_ bv0 1) (sc_s 1)))) (_ bv0 1)))))
 (let (($x189 (exc_halt_s 1)))
 (let (($x9719 (= $x247 (or $x189 $x1434))))
 (let (($x560 (forall ((w (_ BitVec 256)) )(let ((?x10151 (storage_s x_SLOAD_0 w_4 w_2 x_SHA3_0 1 w)))
 (let ((?x6530 (storage_s x_SLOAD_0 w_4 w_2 x_SHA3_0 2 w)))
 (= ?x6530 ?x10151))))
 ))
 (let (($x10602 (forall ((n (_ BitVec 6)) )(let ((?x154 (sc_s 1)))
 (let (($x5858 (bvsle ?x154 n)))
 (let ((?x8901 (stack_s x_SLOAD_0 w_4 w_2 x_SHA3_0 1 n)))
 (let ((?x7035 (stack_s x_SLOAD_0 w_4 w_2 x_SHA3_0 2 n)))
 (or (= ?x7035 ?x8901) $x5858))))))
 ))
 (let (($x6991 (= ?x218 (bvadd (_ bv1 6) (sc_s 1)))))
 (let ((?x10121 (used_gas_s x_SLOAD_0 w_4 w_2 x_SHA3_0 2)))
 (let (($x9367 (= $x189 (or $x57 (not (= ((_ extract 6 6) (bvadd (_ bv1 7) (concat (_ bv0 1) ?x72))) (_ bv0 1)))))))
 (let (($x2615 (forall ((w (_ BitVec 256)) )(let ((?x208 (storage_s x_SLOAD_0 w_4 w_2 x_SHA3_0 0 w)))
 (let ((?x10151 (storage_s x_SLOAD_0 w_4 w_2 x_SHA3_0 1 w)))
 (= ?x10151 ?x208))))
 ))
 (let (($x594 (forall ((n (_ BitVec 6)) )(let ((?x72 (sc_s 0)))
 (let (($x7754 (bvsle ?x72 n)))
 (let ((?x9355 (stack_s x_SLOAD_0 w_4 w_2 x_SHA3_0 0 n)))
 (let ((?x8901 (stack_s x_SLOAD_0 w_4 w_2 x_SHA3_0 1 n)))
 (or (= ?x8901 ?x9355) $x7754))))))
 ))
 (let ((?x154 (sc_s 1)))
 (let (($x7187 (= ?x154 (bvadd (_ bv1 6) ?x72))))
 (let (($x10405 (forall ((w0 (_ BitVec 256)) (w1 (_ BitVec 256)) )(let (($x5115 (= (stack_s x_SLOAD_0 w_4 w_2 x_SHA3_0 3 (bvadd (_ bv62 6) (sc_s 3))) w1)))
 (let (($x5151 (= (stack_s x_SLOAD_0 w_4 w_2 x_SHA3_0 3 (bvadd (_ bv63 6) (sc_s 3))) w0)))
 (let ((?x10164 (f_SHA3 x_SLOAD_0 w_4 w_2 x_SHA3_0 w0 w1)))
 (= ?x10164 (ite (and $x5151 $x5115) x_SHA3_0 (_ bv0 256)))))))
 ))
 (let (($x216 (forall ((w (_ BitVec 256)) )(let (($x6099 (= w (stack_s x_SLOAD_0 w_4 w_2 x_SHA3_0 4 (bvadd (_ bv63 6) (sc_s 4))))))
 (let ((?x208 (storage_s x_SLOAD_0 w_4 w_2 x_SHA3_0 0 w)))
 (= ?x208 (ite $x6099 x_SLOAD_0 (_ bv0 256))))))
 ))
 (let (($x930 (= ?x5317 0)))
 (let (($x6677 (not $x57)))
 (let (($x136 (= ?x72 (_ bv0 6))))
 (and $x136 $x6677 $x930 $x216 $x10405 (= (stack_s x_SLOAD_0 w_4 w_2 x_SHA3_0 1 ?x72) w_4) (= (used_gas_s x_SLOAD_0 w_4 w_2 x_SHA3_0 1) (+ 3 ?x5317)) $x7187 $x594 $x2615 $x9367 (= (stack_s x_SLOAD_0 w_4 w_2 x_SHA3_0 2 ?x154) w_2) (= ?x10121 (+ 3 (used_gas_s x_SLOAD_0 w_4 w_2 x_SHA3_0 1))) $x6991 $x10602 $x560 $x9719 (= ?x146 ?x5102) (= (stack_s x_SLOAD_0 w_4 w_2 x_SHA3_0 3 ?x347) ?x5102) $x6098 (= ?x10173 (+ 3 ?x10121)) $x2890 $x5297 $x5127 $x8391 (= ?x5123 ?x5520) (= ?x10225 (+ 30 ?x10173)) $x4777 $x10571 $x854 $x5849 (= ?x871 (storage_s x_SLOAD_0 w_4 w_2 x_SHA3_0 4 ?x5123)) (= ?x503 (+ 200 ?x10225)) $x2270 $x1574 $x4879 $x4293 $x10365 (= (stack_s x_SLOAD_0 w_4 w_2 x_SHA3_0 6 (bvadd (_ bv62 6) ?x926)) ?x871) $x244 $x5117 $x274 $x619 $x10361 (= (stack_t x_SLOAD_0 w_4 w_2 x_SHA3_0 1 ?x63) w_2) (= (used_gas_t x_SLOAD_0 w_4 w_2 x_SHA3_0 1) (+ 3 ?x6236)) $x223 $x10490 $x10409 $x4795 (= (stack_t x_SLOAD_0 w_4 w_2 x_SHA3_0 2 ?x4023) w_4) (= ?x188 (+ 3 (used_gas_t x_SLOAD_0 w_4 w_2 x_SHA3_0 1))) $x5543 $x2639 $x3795 $x1427 (= ?x5529 ?x10318) (= ?x4714 (+ 30 ?x188)) (= ?x2012 (bvadd (_ bv63 6) ?x4056)) $x561 $x2983 $x7269 $x3835 (= ?x10507 (+ 200 ?x4714)) $x6874 $x7526 $x10165 $x9766 (= (stack_t x_SLOAD_0 w_4 w_2 x_SHA3_0 5 ?x3757) w_4) $x10163 $x6725 $x8154 $x4873 $x8835 $x73 $x10050 $x58 $x2620 $x5107 (not (and $x929 $x5125 $x889 $x5670))))))))))))))))))))))))))))))))))))))))))))))))))))))))))))))))))))))))))))))))))))))))))))))))))))))))))))))))))))))
 )
(check-sat)
(get-proof)
